TCS_Benchmarks/redos_fix/snort1_output_distinct_102_101_65_0.txt
((.|\n|\r)*)([tT]{2})
((.|\n|\r)*)(<!ENTITY\s+\w+\s+SYSTEM\s+"[hH])([tT]{2})